4
32
65
40	31
1	1	8	13	
2	1	4	5	
3	2	8	11	5	7	
4	2	7	9	15	8	
5	4	27	3	25	3	20	3	8	3	
6	2	12	8	15	7	
7	1	30	3	
8	1	15	4	
9	2	7	13	5	12	
10	1	5	6	
11	1	14	2	
12	3	4	10	4	6	30	2	
13	3	7	5	7	5	5	4	
14	2	12	6	8	5	
15	4	6	7	9	6	5	5	16	3	
16	2	5	7	13	2	
17	3	5	10	6	7	23	2	
18	1	4	6	
19	4	5	10	13	4	7	4	12	3	
20	2	19	4	10	3	
21	2	4	8	6	5	
22	1	6	13	
23	2	11	7	7	4	
24	1	8	10	
25	1	13	3	
26	1	6	10	
27	3	6	5	14	4	24	3	
28	4	4	10	8	7	9	5	26	2	
29	2	4	6	31	3	
30	1	6	6	
31	1	23	4	
32	4	6	12	6	8	4	3	23	2	
